1975472
59,18,48,22,5,25,65,10,63,6,42,45,54,33,66,37,40,24,29,28,55,31,0,53,12,46,3,47,57,14,7,52,36,67,34,38,61,50,49,30,56,32,17,9,43,13,51,21,27,58,15,35,8,26,16,44,64,19,1,62,20,23,60,2,41,11,39,4